language Essence 1.3

letting costTC be
        function((1, 1) --> 6, (1, 2) --> 4, (1, 3) --> 4, (1, 4) --> 8, (1, 5) --> 7, (2, 1) --> 5, (2, 2) --> 5,
                 (2, 3) --> 5, (2, 4) --> 5, (2, 5) --> 5, (3, 1) --> 4, (3, 2) --> 8, (3, 3) --> 7, (3, 4) --> 4,
                 (3, 5) --> 7, (4, 1) --> 5, (4, 2) --> 6, (4, 3) --> 7, (4, 4) --> 5, (4, 5) --> 6, (5, 1) --> 5,
                 (5, 2) --> 6, (5, 3) --> 6, (5, 4) --> 4, (5, 5) --> 4, (6, 1) --> 7, (6, 2) --> 8, (6, 3) --> 6,
                 (6, 4) --> 5, (6, 5) --> 8, (7, 1) --> 7, (7, 2) --> 4, (7, 3) --> 4, (7, 4) --> 6, (7, 5) --> 6,
                 (8, 1) --> 5, (8, 2) --> 6, (8, 3) --> 6, (8, 4) --> 8, (8, 5) --> 6, (9, 1) --> 8, (9, 2) --> 6,
                 (9, 3) --> 7, (9, 4) --> 7, (9, 5) --> 7, (10, 1) --> 6, (10, 2) --> 4, (10, 3) --> 4, (10, 4) --> 4,
                 (10, 5) --> 5, (11, 1) --> 5, (11, 2) --> 6, (11, 3) --> 7, (11, 4) --> 8, (11, 5) --> 6,
                 (12, 1) --> 8, (12, 2) --> 4, (12, 3) --> 5, (12, 4) --> 5, (12, 5) --> 5, (13, 1) --> 5,
                 (13, 2) --> 5, (13, 3) --> 8, (13, 4) --> 6, (13, 5) --> 5, (14, 1) --> 6, (14, 2) --> 8,
                 (14, 3) --> 4, (14, 4) --> 6, (14, 5) --> 7, (15, 1) --> 7, (15, 2) --> 7, (15, 3) --> 4,
                 (15, 4) --> 4, (15, 5) --> 6, (16, 1) --> 5, (16, 2) --> 5, (16, 3) --> 7, (16, 4) --> 6,
                 (16, 5) --> 4, (17, 1) --> 8, (17, 2) --> 7, (17, 3) --> 7, (17, 4) --> 7, (17, 5) --> 8,
                 (18, 1) --> 6, (18, 2) --> 7, (18, 3) --> 6, (18, 4) --> 6, (18, 5) --> 6, (19, 1) --> 8,
                 (19, 2) --> 6, (19, 3) --> 5, (19, 4) --> 5, (19, 5) --> 7, (20, 1) --> 7, (20, 2) --> 7,
                 (20, 3) --> 8, (20, 4) --> 8, (20, 5) --> 8, (21, 1) --> 8, (21, 2) --> 7, (21, 3) --> 8,
                 (21, 4) --> 8, (21, 5) --> 4, (22, 1) --> 7, (22, 2) --> 5, (22, 3) --> 4, (22, 4) --> 8,
                 (22, 5) --> 8, (23, 1) --> 7, (23, 2) --> 5, (23, 3) --> 6, (23, 4) --> 4, (23, 5) --> 6,
                 (24, 1) --> 8, (24, 2) --> 7, (24, 3) --> 5, (24, 4) --> 7, (24, 5) --> 7, (25, 1) --> 7,
                 (25, 2) --> 4, (25, 3) --> 5, (25, 4) --> 4, (25, 5) --> 5, (26, 1) --> 7, (26, 2) --> 4,
                 (26, 3) --> 8, (26, 4) --> 4, (26, 5) --> 4, (27, 1) --> 4, (27, 2) --> 5, (27, 3) --> 4,
                 (27, 4) --> 4, (27, 5) --> 8, (28, 1) --> 5, (28, 2) --> 4, (28, 3) --> 7, (28, 4) --> 4,
                 (28, 5) --> 5, (29, 1) --> 6, (29, 2) --> 6, (29, 3) --> 5, (29, 4) --> 6, (29, 5) --> 5,
                 (30, 1) --> 5, (30, 2) --> 4, (30, 3) --> 8, (30, 4) --> 4, (30, 5) --> 5, (31, 1) --> 5,
                 (31, 2) --> 8, (31, 3) --> 8, (31, 4) --> 8, (31, 5) --> 4, (32, 1) --> 4, (32, 2) --> 8,
                 (32, 3) --> 5, (32, 4) --> 6, (32, 5) --> 8, (33, 1) --> 8, (33, 2) --> 8, (33, 3) --> 6,
                 (33, 4) --> 4, (33, 5) --> 8, (34, 1) --> 5, (34, 2) --> 5, (34, 3) --> 8, (34, 4) --> 6,
                 (34, 5) --> 4, (35, 1) --> 8, (35, 2) --> 5, (35, 3) --> 7, (35, 4) --> 8, (35, 5) --> 8,
                 (36, 1) --> 4, (36, 2) --> 5, (36, 3) --> 7, (36, 4) --> 7, (36, 5) --> 8, (37, 1) --> 4,
                 (37, 2) --> 6, (37, 3) --> 7, (37, 4) --> 4, (37, 5) --> 7, (38, 1) --> 5, (38, 2) --> 8,
                 (38, 3) --> 4, (38, 4) --> 4, (38, 5) --> 4)
letting costWT be
        function((1, 1) --> 1, (1, 2) --> 2, (1, 3) --> 1, (1, 4) --> 1, (1, 5) --> 1, (1, 6) --> 2, (1, 7) --> 1,
                 (1, 8) --> 2, (1, 9) --> 1, (1, 10) --> 2, (1, 11) --> 1, (1, 12) --> 1, (1, 13) --> 1, (1, 14) --> 1,
                 (1, 15) --> 2, (1, 16) --> 2, (1, 17) --> 2, (1, 18) --> 1, (1, 19) --> 2, (1, 20) --> 2,
                 (1, 21) --> 1, (1, 22) --> 2, (1, 23) --> 2, (1, 24) --> 2, (1, 25) --> 2, (1, 26) --> 1,
                 (1, 27) --> 1, (1, 28) --> 1, (1, 29) --> 2, (1, 30) --> 2, (1, 31) --> 2, (1, 32) --> 1,
                 (1, 33) --> 2, (1, 34) --> 2, (1, 35) --> 1, (1, 36) --> 2, (1, 37) --> 2, (1, 38) --> 2, (2, 1) --> 2,
                 (2, 2) --> 2, (2, 3) --> 1, (2, 4) --> 2, (2, 5) --> 1, (2, 6) --> 1, (2, 7) --> 2, (2, 8) --> 2,
                 (2, 9) --> 2, (2, 10) --> 2, (2, 11) --> 1, (2, 12) --> 1, (2, 13) --> 2, (2, 14) --> 1, (2, 15) --> 2,
                 (2, 16) --> 2, (2, 17) --> 2, (2, 18) --> 1, (2, 19) --> 2, (2, 20) --> 2, (2, 21) --> 2,
                 (2, 22) --> 1, (2, 23) --> 2, (2, 24) --> 1, (2, 25) --> 1, (2, 26) --> 1, (2, 27) --> 2,
                 (2, 28) --> 2, (2, 29) --> 2, (2, 30) --> 1, (2, 31) --> 1, (2, 32) --> 1, (2, 33) --> 2,
                 (2, 34) --> 1, (2, 35) --> 2, (2, 36) --> 2, (2, 37) --> 2, (2, 38) --> 2, (3, 1) --> 1, (3, 2) --> 1,
                 (3, 3) --> 2, (3, 4) --> 2, (3, 5) --> 2, (3, 6) --> 2, (3, 7) --> 1, (3, 8) --> 1, (3, 9) --> 2,
                 (3, 10) --> 1, (3, 11) --> 2, (3, 12) --> 1, (3, 13) --> 2, (3, 14) --> 2, (3, 15) --> 1,
                 (3, 16) --> 2, (3, 17) --> 2, (3, 18) --> 2, (3, 19) --> 1, (3, 20) --> 1, (3, 21) --> 2,
                 (3, 22) --> 1, (3, 23) --> 2, (3, 24) --> 1, (3, 25) --> 2, (3, 26) --> 2, (3, 27) --> 1,
                 (3, 28) --> 1, (3, 29) --> 2, (3, 30) --> 2, (3, 31) --> 2, (3, 32) --> 2, (3, 33) --> 1,
                 (3, 34) --> 1, (3, 35) --> 2, (3, 36) --> 1, (3, 37) --> 1, (3, 38) --> 1, (4, 1) --> 2, (4, 2) --> 1,
                 (4, 3) --> 1, (4, 4) --> 1, (4, 5) --> 2, (4, 6) --> 1, (4, 7) --> 1, (4, 8) --> 2, (4, 9) --> 1,
                 (4, 10) --> 2, (4, 11) --> 2, (4, 12) --> 1, (4, 13) --> 2, (4, 14) --> 1, (4, 15) --> 2,
                 (4, 16) --> 2, (4, 17) --> 2, (4, 18) --> 2, (4, 19) --> 1, (4, 20) --> 1, (4, 21) --> 1,
                 (4, 22) --> 1, (4, 23) --> 2, (4, 24) --> 1, (4, 25) --> 2, (4, 26) --> 1, (4, 27) --> 1,
                 (4, 28) --> 2, (4, 29) --> 1, (4, 30) --> 2, (4, 31) --> 2, (4, 32) --> 1, (4, 33) --> 1,
                 (4, 34) --> 2, (4, 35) --> 1, (4, 36) --> 2, (4, 37) --> 1, (4, 38) --> 2, (5, 1) --> 2, (5, 2) --> 2,
                 (5, 3) --> 1, (5, 4) --> 1, (5, 5) --> 2, (5, 6) --> 1, (5, 7) --> 2, (5, 8) --> 1, (5, 9) --> 2,
                 (5, 10) --> 1, (5, 11) --> 1, (5, 12) --> 1, (5, 13) --> 1, (5, 14) --> 1, (5, 15) --> 2,
                 (5, 16) --> 1, (5, 17) --> 1, (5, 18) --> 1, (5, 19) --> 2, (5, 20) --> 2, (5, 21) --> 2,
                 (5, 22) --> 2, (5, 23) --> 2, (5, 24) --> 1, (5, 25) --> 2, (5, 26) --> 1, (5, 27) --> 1,
                 (5, 28) --> 1, (5, 29) --> 2, (5, 30) --> 1, (5, 31) --> 2, (5, 32) --> 2, (5, 33) --> 1,
                 (5, 34) --> 1, (5, 35) --> 2, (5, 36) --> 1, (5, 37) --> 2, (5, 38) --> 2, (6, 1) --> 2, (6, 2) --> 1,
                 (6, 3) --> 1, (6, 4) --> 1, (6, 5) --> 1, (6, 6) --> 2, (6, 7) --> 1, (6, 8) --> 2, (6, 9) --> 1,
                 (6, 10) --> 2, (6, 11) --> 2, (6, 12) --> 1, (6, 13) --> 1, (6, 14) --> 1, (6, 15) --> 1,
                 (6, 16) --> 2, (6, 17) --> 1, (6, 18) --> 1, (6, 19) --> 1, (6, 20) --> 1, (6, 21) --> 1,
                 (6, 22) --> 1, (6, 23) --> 1, (6, 24) --> 2, (6, 25) --> 1, (6, 26) --> 2, (6, 27) --> 1,
                 (6, 28) --> 2, (6, 29) --> 2, (6, 30) --> 2, (6, 31) --> 2, (6, 32) --> 1, (6, 33) --> 1,
                 (6, 34) --> 1, (6, 35) --> 2, (6, 36) --> 2, (6, 37) --> 2, (6, 38) --> 1, (7, 1) --> 1, (7, 2) --> 1,
                 (7, 3) --> 1, (7, 4) --> 1, (7, 5) --> 1, (7, 6) --> 2, (7, 7) --> 2, (7, 8) --> 1, (7, 9) --> 2,
                 (7, 10) --> 2, (7, 11) --> 1, (7, 12) --> 2, (7, 13) --> 1, (7, 14) --> 2, (7, 15) --> 2,
                 (7, 16) --> 1, (7, 17) --> 2, (7, 18) --> 1, (7, 19) --> 2, (7, 20) --> 1, (7, 21) --> 2,
                 (7, 22) --> 1, (7, 23) --> 1, (7, 24) --> 2, (7, 25) --> 2, (7, 26) --> 2, (7, 27) --> 2,
                 (7, 28) --> 2, (7, 29) --> 2, (7, 30) --> 2, (7, 31) --> 2, (7, 32) --> 1, (7, 33) --> 1,
                 (7, 34) --> 2, (7, 35) --> 2, (7, 36) --> 1, (7, 37) --> 1, (7, 38) --> 1, (8, 1) --> 2, (8, 2) --> 2,
                 (8, 3) --> 1, (8, 4) --> 2, (8, 5) --> 2, (8, 6) --> 2, (8, 7) --> 1, (8, 8) --> 1, (8, 9) --> 2,
                 (8, 10) --> 1, (8, 11) --> 1, (8, 12) --> 1, (8, 13) --> 2, (8, 14) --> 1, (8, 15) --> 2,
                 (8, 16) --> 2, (8, 17) --> 1, (8, 18) --> 1, (8, 19) --> 1, (8, 20) --> 2, (8, 21) --> 1,
                 (8, 22) --> 1, (8, 23) --> 1, (8, 24) --> 1, (8, 25) --> 2, (8, 26) --> 2, (8, 27) --> 2,
                 (8, 28) --> 2, (8, 29) --> 1, (8, 30) --> 2, (8, 31) --> 2, (8, 32) --> 2, (8, 33) --> 2,
                 (8, 34) --> 1, (8, 35) --> 1, (8, 36) --> 1, (8, 37) --> 2, (8, 38) --> 1, (9, 1) --> 1, (9, 2) --> 1,
                 (9, 3) --> 2, (9, 4) --> 2, (9, 5) --> 1, (9, 6) --> 1, (9, 7) --> 2, (9, 8) --> 2, (9, 9) --> 2,
                 (9, 10) --> 1, (9, 11) --> 1, (9, 12) --> 2, (9, 13) --> 2, (9, 14) --> 1, (9, 15) --> 2,
                 (9, 16) --> 2, (9, 17) --> 2, (9, 18) --> 1, (9, 19) --> 1, (9, 20) --> 1, (9, 21) --> 2,
                 (9, 22) --> 2, (9, 23) --> 1, (9, 24) --> 1, (9, 25) --> 2, (9, 26) --> 2, (9, 27) --> 1,
                 (9, 28) --> 1, (9, 29) --> 2, (9, 30) --> 1, (9, 31) --> 1, (9, 32) --> 2, (9, 33) --> 1,
                 (9, 34) --> 2, (9, 35) --> 2, (9, 36) --> 1, (9, 37) --> 2, (9, 38) --> 2, (10, 1) --> 2,
                 (10, 2) --> 2, (10, 3) --> 1, (10, 4) --> 2, (10, 5) --> 1, (10, 6) --> 1, (10, 7) --> 1,
                 (10, 8) --> 2, (10, 9) --> 2, (10, 10) --> 2, (10, 11) --> 1, (10, 12) --> 2, (10, 13) --> 1,
                 (10, 14) --> 1, (10, 15) --> 2, (10, 16) --> 2, (10, 17) --> 2, (10, 18) --> 1, (10, 19) --> 2,
                 (10, 20) --> 1, (10, 21) --> 2, (10, 22) --> 1, (10, 23) --> 2, (10, 24) --> 2, (10, 25) --> 1,
                 (10, 26) --> 1, (10, 27) --> 1, (10, 28) --> 2, (10, 29) --> 2, (10, 30) --> 2, (10, 31) --> 1,
                 (10, 32) --> 1, (10, 33) --> 2, (10, 34) --> 1, (10, 35) --> 2, (10, 36) --> 1, (10, 37) --> 2,
                 (10, 38) --> 1, (11, 1) --> 1, (11, 2) --> 2, (11, 3) --> 1, (11, 4) --> 2, (11, 5) --> 1,
                 (11, 6) --> 2, (11, 7) --> 2, (11, 8) --> 2, (11, 9) --> 1, (11, 10) --> 1, (11, 11) --> 2,
                 (11, 12) --> 2, (11, 13) --> 1, (11, 14) --> 1, (11, 15) --> 1, (11, 16) --> 1, (11, 17) --> 1,
                 (11, 18) --> 1, (11, 19) --> 1, (11, 20) --> 1, (11, 21) --> 2, (11, 22) --> 1, (11, 23) --> 1,
                 (11, 24) --> 2, (11, 25) --> 2, (11, 26) --> 2, (11, 27) --> 1, (11, 28) --> 2, (11, 29) --> 2,
                 (11, 30) --> 1, (11, 31) --> 2, (11, 32) --> 1, (11, 33) --> 1, (11, 34) --> 2, (11, 35) --> 2,
                 (11, 36) --> 1, (11, 37) --> 1, (11, 38) --> 2, (12, 1) --> 1, (12, 2) --> 2, (12, 3) --> 1,
                 (12, 4) --> 1, (12, 5) --> 1, (12, 6) --> 2, (12, 7) --> 1, (12, 8) --> 2, (12, 9) --> 2,
                 (12, 10) --> 2, (12, 11) --> 2, (12, 12) --> 1, (12, 13) --> 2, (12, 14) --> 1, (12, 15) --> 1,
                 (12, 16) --> 1, (12, 17) --> 1, (12, 18) --> 2, (12, 19) --> 2, (12, 20) --> 1, (12, 21) --> 2,
                 (12, 22) --> 2, (12, 23) --> 2, (12, 24) --> 1, (12, 25) --> 2, (12, 26) --> 2, (12, 27) --> 1,
                 (12, 28) --> 2, (12, 29) --> 2, (12, 30) --> 2, (12, 31) --> 1, (12, 32) --> 1, (12, 33) --> 2,
                 (12, 34) --> 1, (12, 35) --> 2, (12, 36) --> 1, (12, 37) --> 2, (12, 38) --> 2, (13, 1) --> 1,
                 (13, 2) --> 2, (13, 3) --> 2, (13, 4) --> 1, (13, 5) --> 2, (13, 6) --> 2, (13, 7) --> 2,
                 (13, 8) --> 1, (13, 9) --> 2, (13, 10) --> 1, (13, 11) --> 1, (13, 12) --> 2, (13, 13) --> 2,
                 (13, 14) --> 1, (13, 15) --> 2, (13, 16) --> 2, (13, 17) --> 1, (13, 18) --> 1, (13, 19) --> 1,
                 (13, 20) --> 2, (13, 21) --> 1, (13, 22) --> 2, (13, 23) --> 2, (13, 24) --> 2, (13, 25) --> 1,
                 (13, 26) --> 1, (13, 27) --> 2, (13, 28) --> 1, (13, 29) --> 2, (13, 30) --> 2, (13, 31) --> 2,
                 (13, 32) --> 1, (13, 33) --> 2, (13, 34) --> 1, (13, 35) --> 2, (13, 36) --> 2, (13, 37) --> 1,
                 (13, 38) --> 2, (14, 1) --> 1, (14, 2) --> 2, (14, 3) --> 2, (14, 4) --> 2, (14, 5) --> 2,
                 (14, 6) --> 1, (14, 7) --> 1, (14, 8) --> 2, (14, 9) --> 2, (14, 10) --> 1, (14, 11) --> 1,
                 (14, 12) --> 2, (14, 13) --> 1, (14, 14) --> 1, (14, 15) --> 2, (14, 16) --> 1, (14, 17) --> 2,
                 (14, 18) --> 1, (14, 19) --> 2, (14, 20) --> 2, (14, 21) --> 1, (14, 22) --> 2, (14, 23) --> 2,
                 (14, 24) --> 2, (14, 25) --> 1, (14, 26) --> 1, (14, 27) --> 2, (14, 28) --> 2, (14, 29) --> 1,
                 (14, 30) --> 2, (14, 31) --> 1, (14, 32) --> 1, (14, 33) --> 2, (14, 34) --> 1, (14, 35) --> 1,
                 (14, 36) --> 1, (14, 37) --> 2, (14, 38) --> 1, (15, 1) --> 1, (15, 2) --> 2, (15, 3) --> 1,
                 (15, 4) --> 1, (15, 5) --> 2, (15, 6) --> 1, (15, 7) --> 2, (15, 8) --> 1, (15, 9) --> 2,
                 (15, 10) --> 2, (15, 11) --> 1, (15, 12) --> 2, (15, 13) --> 2, (15, 14) --> 1, (15, 15) --> 1,
                 (15, 16) --> 2, (15, 17) --> 2, (15, 18) --> 2, (15, 19) --> 2, (15, 20) --> 1, (15, 21) --> 2,
                 (15, 22) --> 2, (15, 23) --> 1, (15, 24) --> 1, (15, 25) --> 1, (15, 26) --> 1, (15, 27) --> 1,
                 (15, 28) --> 2, (15, 29) --> 1, (15, 30) --> 2, (15, 31) --> 1, (15, 32) --> 2, (15, 33) --> 2,
                 (15, 34) --> 2, (15, 35) --> 1, (15, 36) --> 1, (15, 37) --> 2, (15, 38) --> 1, (16, 1) --> 2,
                 (16, 2) --> 2, (16, 3) --> 1, (16, 4) --> 2, (16, 5) --> 1, (16, 6) --> 1, (16, 7) --> 1,
                 (16, 8) --> 2, (16, 9) --> 2, (16, 10) --> 2, (16, 11) --> 2, (16, 12) --> 1, (16, 13) --> 1,
                 (16, 14) --> 2, (16, 15) --> 2, (16, 16) --> 2, (16, 17) --> 1, (16, 18) --> 1, (16, 19) --> 2,
                 (16, 20) --> 1, (16, 21) --> 1, (16, 22) --> 2, (16, 23) --> 1, (16, 24) --> 2, (16, 25) --> 2,
                 (16, 26) --> 2, (16, 27) --> 1, (16, 28) --> 1, (16, 29) --> 1, (16, 30) --> 2, (16, 31) --> 2,
                 (16, 32) --> 1, (16, 33) --> 2, (16, 34) --> 2, (16, 35) --> 2, (16, 36) --> 2, (16, 37) --> 1,
                 (16, 38) --> 2, (17, 1) --> 2, (17, 2) --> 2, (17, 3) --> 2, (17, 4) --> 1, (17, 5) --> 2,
                 (17, 6) --> 1, (17, 7) --> 2, (17, 8) --> 1, (17, 9) --> 1, (17, 10) --> 1, (17, 11) --> 2,
                 (17, 12) --> 2, (17, 13) --> 2, (17, 14) --> 2, (17, 15) --> 2, (17, 16) --> 1, (17, 17) --> 2,
                 (17, 18) --> 2, (17, 19) --> 1, (17, 20) --> 1, (17, 21) --> 1, (17, 22) --> 2, (17, 23) --> 1,
                 (17, 24) --> 1, (17, 25) --> 1, (17, 26) --> 2, (17, 27) --> 2, (17, 28) --> 1, (17, 29) --> 2,
                 (17, 30) --> 2, (17, 31) --> 2, (17, 32) --> 1, (17, 33) --> 1, (17, 34) --> 2, (17, 35) --> 2,
                 (17, 36) --> 1, (17, 37) --> 1, (17, 38) --> 1, (18, 1) --> 1, (18, 2) --> 2, (18, 3) --> 2,
                 (18, 4) --> 1, (18, 5) --> 2, (18, 6) --> 2, (18, 7) --> 1, (18, 8) --> 2, (18, 9) --> 1,
                 (18, 10) --> 1, (18, 11) --> 2, (18, 12) --> 1, (18, 13) --> 1, (18, 14) --> 1, (18, 15) --> 2,
                 (18, 16) --> 2, (18, 17) --> 2, (18, 18) --> 2, (18, 19) --> 2, (18, 20) --> 2, (18, 21) --> 2,
                 (18, 22) --> 2, (18, 23) --> 2, (18, 24) --> 2, (18, 25) --> 1, (18, 26) --> 2, (18, 27) --> 1,
                 (18, 28) --> 2, (18, 29) --> 2, (18, 30) --> 1, (18, 31) --> 2, (18, 32) --> 2, (18, 33) --> 1,
                 (18, 34) --> 1, (18, 35) --> 1, (18, 36) --> 1, (18, 37) --> 1, (18, 38) --> 1, (19, 1) --> 1,
                 (19, 2) --> 1, (19, 3) --> 1, (19, 4) --> 2, (19, 5) --> 1, (19, 6) --> 1, (19, 7) --> 1,
                 (19, 8) --> 2, (19, 9) --> 2, (19, 10) --> 1, (19, 11) --> 2, (19, 12) --> 2, (19, 13) --> 2,
                 (19, 14) --> 2, (19, 15) --> 1, (19, 16) --> 2, (19, 17) --> 2, (19, 18) --> 1, (19, 19) --> 1,
                 (19, 20) --> 1, (19, 21) --> 2, (19, 22) --> 2, (19, 23) --> 2, (19, 24) --> 2, (19, 25) --> 2,
                 (19, 26) --> 1, (19, 27) --> 2, (19, 28) --> 1, (19, 29) --> 1, (19, 30) --> 1, (19, 31) --> 1,
                 (19, 32) --> 1, (19, 33) --> 1, (19, 34) --> 2, (19, 35) --> 2, (19, 36) --> 1, (19, 37) --> 2,
                 (19, 38) --> 2, (20, 1) --> 1, (20, 2) --> 1, (20, 3) --> 2, (20, 4) --> 2, (20, 5) --> 1,
                 (20, 6) --> 2, (20, 7) --> 1, (20, 8) --> 2, (20, 9) --> 2, (20, 10) --> 1, (20, 11) --> 2,
                 (20, 12) --> 1, (20, 13) --> 2, (20, 14) --> 2, (20, 15) --> 2, (20, 16) --> 1, (20, 17) --> 2,
                 (20, 18) --> 1, (20, 19) --> 2, (20, 20) --> 1, (20, 21) --> 2, (20, 22) --> 1, (20, 23) --> 1,
                 (20, 24) --> 2, (20, 25) --> 1, (20, 26) --> 1, (20, 27) --> 1, (20, 28) --> 1, (20, 29) --> 2,
                 (20, 30) --> 1, (20, 31) --> 1, (20, 32) --> 1, (20, 33) --> 2, (20, 34) --> 1, (20, 35) --> 2,
                 (20, 36) --> 1, (20, 37) --> 2, (20, 38) --> 2, (21, 1) --> 1, (21, 2) --> 2, (21, 3) --> 2,
                 (21, 4) --> 2, (21, 5) --> 2, (21, 6) --> 2, (21, 7) --> 2, (21, 8) --> 2, (21, 9) --> 1,
                 (21, 10) --> 2, (21, 11) --> 1, (21, 12) --> 2, (21, 13) --> 2, (21, 14) --> 1, (21, 15) --> 2,
                 (21, 16) --> 2, (21, 17) --> 2, (21, 18) --> 1, (21, 19) --> 1, (21, 20) --> 1, (21, 21) --> 1,
                 (21, 22) --> 1, (21, 23) --> 1, (21, 24) --> 1, (21, 25) --> 2, (21, 26) --> 2, (21, 27) --> 1,
                 (21, 28) --> 2, (21, 29) --> 1, (21, 30) --> 2, (21, 31) --> 1, (21, 32) --> 2, (21, 33) --> 2,
                 (21, 34) --> 2, (21, 35) --> 2, (21, 36) --> 2, (21, 37) --> 1, (21, 38) --> 2, (22, 1) --> 1,
                 (22, 2) --> 1, (22, 3) --> 1, (22, 4) --> 1, (22, 5) --> 2, (22, 6) --> 2, (22, 7) --> 2,
                 (22, 8) --> 2, (22, 9) --> 1, (22, 10) --> 2, (22, 11) --> 2, (22, 12) --> 2, (22, 13) --> 1,
                 (22, 14) --> 1, (22, 15) --> 2, (22, 16) --> 2, (22, 17) --> 2, (22, 18) --> 1, (22, 19) --> 1,
                 (22, 20) --> 1, (22, 21) --> 1, (22, 22) --> 1, (22, 23) --> 2, (22, 24) --> 2, (22, 25) --> 2,
                 (22, 26) --> 2, (22, 27) --> 1, (22, 28) --> 2, (22, 29) --> 2, (22, 30) --> 2, (22, 31) --> 2,
                 (22, 32) --> 2, (22, 33) --> 2, (22, 34) --> 2, (22, 35) --> 2, (22, 36) --> 2, (22, 37) --> 1,
                 (22, 38) --> 2, (23, 1) --> 2, (23, 2) --> 2, (23, 3) --> 2, (23, 4) --> 1, (23, 5) --> 2,
                 (23, 6) --> 1, (23, 7) --> 1, (23, 8) --> 2, (23, 9) --> 1, (23, 10) --> 2, (23, 11) --> 2,
                 (23, 12) --> 1, (23, 13) --> 1, (23, 14) --> 1, (23, 15) --> 2, (23, 16) --> 2, (23, 17) --> 1,
                 (23, 18) --> 1, (23, 19) --> 2, (23, 20) --> 2, (23, 21) --> 2, (23, 22) --> 1, (23, 23) --> 2,
                 (23, 24) --> 2, (23, 25) --> 1, (23, 26) --> 1, (23, 27) --> 1, (23, 28) --> 1, (23, 29) --> 2,
                 (23, 30) --> 2, (23, 31) --> 2, (23, 32) --> 2, (23, 33) --> 1, (23, 34) --> 2, (23, 35) --> 2,
                 (23, 36) --> 1, (23, 37) --> 2, (23, 38) --> 1, (24, 1) --> 2, (24, 2) --> 2, (24, 3) --> 1,
                 (24, 4) --> 1, (24, 5) --> 1, (24, 6) --> 1, (24, 7) --> 1, (24, 8) --> 1, (24, 9) --> 1,
                 (24, 10) --> 1, (24, 11) --> 1, (24, 12) --> 2, (24, 13) --> 1, (24, 14) --> 2, (24, 15) --> 1,
                 (24, 16) --> 2, (24, 17) --> 2, (24, 18) --> 2, (24, 19) --> 1, (24, 20) --> 2, (24, 21) --> 2,
                 (24, 22) --> 2, (24, 23) --> 1, (24, 24) --> 2, (24, 25) --> 2, (24, 26) --> 2, (24, 27) --> 2,
                 (24, 28) --> 1, (24, 29) --> 2, (24, 30) --> 2, (24, 31) --> 2, (24, 32) --> 2, (24, 33) --> 1,
                 (24, 34) --> 2, (24, 35) --> 1, (24, 36) --> 2, (24, 37) --> 2, (24, 38) --> 2, (25, 1) --> 1,
                 (25, 2) --> 2, (25, 3) --> 2, (25, 4) --> 2, (25, 5) --> 2, (25, 6) --> 1, (25, 7) --> 1,
                 (25, 8) --> 2, (25, 9) --> 1, (25, 10) --> 2, (25, 11) --> 2, (25, 12) --> 1, (25, 13) --> 1,
                 (25, 14) --> 2, (25, 15) --> 1, (25, 16) --> 1, (25, 17) --> 2, (25, 18) --> 2, (25, 19) --> 2,
                 (25, 20) --> 2, (25, 21) --> 2, (25, 22) --> 2, (25, 23) --> 2, (25, 24) --> 2, (25, 25) --> 1,
                 (25, 26) --> 2, (25, 27) --> 1, (25, 28) --> 1, (25, 29) --> 2, (25, 30) --> 2, (25, 31) --> 1,
                 (25, 32) --> 2, (25, 33) --> 1, (25, 34) --> 2, (25, 35) --> 1, (25, 36) --> 1, (25, 37) --> 2,
                 (25, 38) --> 2, (26, 1) --> 1, (26, 2) --> 2, (26, 3) --> 1, (26, 4) --> 1, (26, 5) --> 1,
                 (26, 6) --> 2, (26, 7) --> 1, (26, 8) --> 2, (26, 9) --> 2, (26, 10) --> 2, (26, 11) --> 2,
                 (26, 12) --> 2, (26, 13) --> 1, (26, 14) --> 2, (26, 15) --> 1, (26, 16) --> 2, (26, 17) --> 1,
                 (26, 18) --> 2, (26, 19) --> 1, (26, 20) --> 2, (26, 21) --> 2, (26, 22) --> 2, (26, 23) --> 1,
                 (26, 24) --> 1, (26, 25) --> 1, (26, 26) --> 2, (26, 27) --> 2, (26, 28) --> 1, (26, 29) --> 1,
                 (26, 30) --> 2, (26, 31) --> 2, (26, 32) --> 1, (26, 33) --> 1, (26, 34) --> 1, (26, 35) --> 1,
                 (26, 36) --> 1, (26, 37) --> 2, (26, 38) --> 1, (27, 1) --> 1, (27, 2) --> 2, (27, 3) --> 1,
                 (27, 4) --> 2, (27, 5) --> 2, (27, 6) --> 2, (27, 7) --> 1, (27, 8) --> 1, (27, 9) --> 1,
                 (27, 10) --> 1, (27, 11) --> 2, (27, 12) --> 1, (27, 13) --> 1, (27, 14) --> 1, (27, 15) --> 1,
                 (27, 16) --> 2, (27, 17) --> 1, (27, 18) --> 1, (27, 19) --> 1, (27, 20) --> 1, (27, 21) --> 2,
                 (27, 22) --> 1, (27, 23) --> 1, (27, 24) --> 1, (27, 25) --> 2, (27, 26) --> 2, (27, 27) --> 1,
                 (27, 28) --> 1, (27, 29) --> 2, (27, 30) --> 2, (27, 31) --> 2, (27, 32) --> 1, (27, 33) --> 1,
                 (27, 34) --> 1, (27, 35) --> 2, (27, 36) --> 2, (27, 37) --> 2, (27, 38) --> 2, (28, 1) --> 1,
                 (28, 2) --> 2, (28, 3) --> 2, (28, 4) --> 2, (28, 5) --> 2, (28, 6) --> 1, (28, 7) --> 2,
                 (28, 8) --> 1, (28, 9) --> 1, (28, 10) --> 2, (28, 11) --> 1, (28, 12) --> 1, (28, 13) --> 2,
                 (28, 14) --> 1, (28, 15) --> 1, (28, 16) --> 2, (28, 17) --> 2, (28, 18) --> 1, (28, 19) --> 1,
                 (28, 20) --> 1, (28, 21) --> 2, (28, 22) --> 1, (28, 23) --> 1, (28, 24) --> 2, (28, 25) --> 1,
                 (28, 26) --> 2, (28, 27) --> 1, (28, 28) --> 2, (28, 29) --> 2, (28, 30) --> 2, (28, 31) --> 2,
                 (28, 32) --> 2, (28, 33) --> 2, (28, 34) --> 1, (28, 35) --> 1, (28, 36) --> 1, (28, 37) --> 1,
                 (28, 38) --> 2, (29, 1) --> 1, (29, 2) --> 1, (29, 3) --> 2, (29, 4) --> 1, (29, 5) --> 1,
                 (29, 6) --> 2, (29, 7) --> 2, (29, 8) --> 1, (29, 9) --> 2, (29, 10) --> 2, (29, 11) --> 2,
                 (29, 12) --> 1, (29, 13) --> 2, (29, 14) --> 2, (29, 15) --> 1, (29, 16) --> 1, (29, 17) --> 1,
                 (29, 18) --> 1, (29, 19) --> 2, (29, 20) --> 2, (29, 21) --> 2, (29, 22) --> 1, (29, 23) --> 1,
                 (29, 24) --> 1, (29, 25) --> 1, (29, 26) --> 1, (29, 27) --> 1, (29, 28) --> 1, (29, 29) --> 2,
                 (29, 30) --> 1, (29, 31) --> 1, (29, 32) --> 1, (29, 33) --> 2, (29, 34) --> 2, (29, 35) --> 2,
                 (29, 36) --> 1, (29, 37) --> 1, (29, 38) --> 1, (30, 1) --> 1, (30, 2) --> 2, (30, 3) --> 2,
                 (30, 4) --> 2, (30, 5) --> 2, (30, 6) --> 2, (30, 7) --> 1, (30, 8) --> 1, (30, 9) --> 1,
                 (30, 10) --> 1, (30, 11) --> 2, (30, 12) --> 2, (30, 13) --> 2, (30, 14) --> 2, (30, 15) --> 2,
                 (30, 16) --> 2, (30, 17) --> 1, (30, 18) --> 2, (30, 19) --> 1, (30, 20) --> 2, (30, 21) --> 1,
                 (30, 22) --> 2, (30, 23) --> 1, (30, 24) --> 1, (30, 25) --> 2, (30, 26) --> 2, (30, 27) --> 1,
                 (30, 28) --> 2, (30, 29) --> 1, (30, 30) --> 1, (30, 31) --> 1, (30, 32) --> 2, (30, 33) --> 1,
                 (30, 34) --> 2, (30, 35) --> 2, (30, 36) --> 1, (30, 37) --> 2, (30, 38) --> 2, (31, 1) --> 1,
                 (31, 2) --> 2, (31, 3) --> 2, (31, 4) --> 2, (31, 5) --> 2, (31, 6) --> 1, (31, 7) --> 1,
                 (31, 8) --> 2, (31, 9) --> 2, (31, 10) --> 1, (31, 11) --> 1, (31, 12) --> 2, (31, 13) --> 1,
                 (31, 14) --> 1, (31, 15) --> 2, (31, 16) --> 1, (31, 17) --> 2, (31, 18) --> 2, (31, 19) --> 2,
                 (31, 20) --> 2, (31, 21) --> 2, (31, 22) --> 1, (31, 23) --> 2, (31, 24) --> 2, (31, 25) --> 2,
                 (31, 26) --> 2, (31, 27) --> 2, (31, 28) --> 1, (31, 29) --> 2, (31, 30) --> 2, (31, 31) --> 1,
                 (31, 32) --> 1, (31, 33) --> 1, (31, 34) --> 2, (31, 35) --> 1, (31, 36) --> 1, (31, 37) --> 2,
                 (31, 38) --> 1, (32, 1) --> 2, (32, 2) --> 2, (32, 3) --> 1, (32, 4) --> 2, (32, 5) --> 1,
                 (32, 6) --> 2, (32, 7) --> 1, (32, 8) --> 2, (32, 9) --> 1, (32, 10) --> 1, (32, 11) --> 1,
                 (32, 12) --> 2, (32, 13) --> 1, (32, 14) --> 2, (32, 15) --> 2, (32, 16) --> 1, (32, 17) --> 1,
                 (32, 18) --> 1, (32, 19) --> 2, (32, 20) --> 1, (32, 21) --> 2, (32, 22) --> 1, (32, 23) --> 1,
                 (32, 24) --> 2, (32, 25) --> 2, (32, 26) --> 1, (32, 27) --> 1, (32, 28) --> 1, (32, 29) --> 1,
                 (32, 30) --> 1, (32, 31) --> 2, (32, 32) --> 1, (32, 33) --> 1, (32, 34) --> 1, (32, 35) --> 1,
                 (32, 36) --> 2, (32, 37) --> 1, (32, 38) --> 2, (33, 1) --> 2, (33, 2) --> 2, (33, 3) --> 1,
                 (33, 4) --> 1, (33, 5) --> 2, (33, 6) --> 1, (33, 7) --> 1, (33, 8) --> 1, (33, 9) --> 2,
                 (33, 10) --> 2, (33, 11) --> 1, (33, 12) --> 1, (33, 13) --> 1, (33, 14) --> 1, (33, 15) --> 1,
                 (33, 16) --> 2, (33, 17) --> 2, (33, 18) --> 1, (33, 19) --> 2, (33, 20) --> 1, (33, 21) --> 1,
                 (33, 22) --> 1, (33, 23) --> 1, (33, 24) --> 2, (33, 25) --> 1, (33, 26) --> 1, (33, 27) --> 1,
                 (33, 28) --> 1, (33, 29) --> 2, (33, 30) --> 2, (33, 31) --> 2, (33, 32) --> 1, (33, 33) --> 2,
                 (33, 34) --> 1, (33, 35) --> 1, (33, 36) --> 2, (33, 37) --> 1, (33, 38) --> 1, (34, 1) --> 2,
                 (34, 2) --> 2, (34, 3) --> 2, (34, 4) --> 2, (34, 5) --> 1, (34, 6) --> 2, (34, 7) --> 1,
                 (34, 8) --> 1, (34, 9) --> 2, (34, 10) --> 2, (34, 11) --> 2, (34, 12) --> 2, (34, 13) --> 1,
                 (34, 14) --> 1, (34, 15) --> 2, (34, 16) --> 2, (34, 17) --> 1, (34, 18) --> 1, (34, 19) --> 2,
                 (34, 20) --> 2, (34, 21) --> 2, (34, 22) --> 1, (34, 23) --> 1, (34, 24) --> 2, (34, 25) --> 2,
                 (34, 26) --> 1, (34, 27) --> 1, (34, 28) --> 1, (34, 29) --> 1, (34, 30) --> 1, (34, 31) --> 1,
                 (34, 32) --> 2, (34, 33) --> 2, (34, 34) --> 2, (34, 35) --> 1, (34, 36) --> 2, (34, 37) --> 2,
                 (34, 38) --> 1, (35, 1) --> 1, (35, 2) --> 2, (35, 3) --> 1, (35, 4) --> 2, (35, 5) --> 1,
                 (35, 6) --> 2, (35, 7) --> 2, (35, 8) --> 2, (35, 9) --> 2, (35, 10) --> 1, (35, 11) --> 1,
                 (35, 12) --> 2, (35, 13) --> 1, (35, 14) --> 2, (35, 15) --> 1, (35, 16) --> 1, (35, 17) --> 1,
                 (35, 18) --> 2, (35, 19) --> 1, (35, 20) --> 2, (35, 21) --> 1, (35, 22) --> 2, (35, 23) --> 2,
                 (35, 24) --> 2, (35, 25) --> 1, (35, 26) --> 2, (35, 27) --> 1, (35, 28) --> 1, (35, 29) --> 2,
                 (35, 30) --> 1, (35, 31) --> 2, (35, 32) --> 1, (35, 33) --> 2, (35, 34) --> 2, (35, 35) --> 1,
                 (35, 36) --> 1, (35, 37) --> 2, (35, 38) --> 2, (36, 1) --> 1, (36, 2) --> 1, (36, 3) --> 2,
                 (36, 4) --> 1, (36, 5) --> 2, (36, 6) --> 1, (36, 7) --> 1, (36, 8) --> 1, (36, 9) --> 1,
                 (36, 10) --> 1, (36, 11) --> 1, (36, 12) --> 1, (36, 13) --> 2, (36, 14) --> 1, (36, 15) --> 2,
                 (36, 16) --> 2, (36, 17) --> 1, (36, 18) --> 2, (36, 19) --> 1, (36, 20) --> 1, (36, 21) --> 1,
                 (36, 22) --> 1, (36, 23) --> 1, (36, 24) --> 2, (36, 25) --> 2, (36, 26) --> 2, (36, 27) --> 2,
                 (36, 28) --> 2, (36, 29) --> 1, (36, 30) --> 2, (36, 31) --> 2, (36, 32) --> 1, (36, 33) --> 1,
                 (36, 34) --> 1, (36, 35) --> 1, (36, 36) --> 1, (36, 37) --> 1, (36, 38) --> 1, (37, 1) --> 1,
                 (37, 2) --> 2, (37, 3) --> 2, (37, 4) --> 2, (37, 5) --> 1, (37, 6) --> 1, (37, 7) --> 2,
                 (37, 8) --> 2, (37, 9) --> 2, (37, 10) --> 1, (37, 11) --> 1, (37, 12) --> 1, (37, 13) --> 2,
                 (37, 14) --> 1, (37, 15) --> 1, (37, 16) --> 2, (37, 17) --> 1, (37, 18) --> 2, (37, 19) --> 1,
                 (37, 20) --> 1, (37, 21) --> 1, (37, 22) --> 2, (37, 23) --> 1, (37, 24) --> 2, (37, 25) --> 2,
                 (37, 26) --> 1, (37, 27) --> 2, (37, 28) --> 1, (37, 29) --> 1, (37, 30) --> 1, (37, 31) --> 2,
                 (37, 32) --> 1, (37, 33) --> 1, (37, 34) --> 1, (37, 35) --> 2, (37, 36) --> 2, (37, 37) --> 1,
                 (37, 38) --> 2, (38, 1) --> 1, (38, 2) --> 2, (38, 3) --> 2, (38, 4) --> 1, (38, 5) --> 2,
                 (38, 6) --> 2, (38, 7) --> 1, (38, 8) --> 2, (38, 9) --> 2, (38, 10) --> 2, (38, 11) --> 1,
                 (38, 12) --> 1, (38, 13) --> 2, (38, 14) --> 1, (38, 15) --> 1, (38, 16) --> 1, (38, 17) --> 1,
                 (38, 18) --> 2, (38, 19) --> 1, (38, 20) --> 2, (38, 21) --> 2, (38, 22) --> 1, (38, 23) --> 1,
                 (38, 24) --> 1, (38, 25) --> 1, (38, 26) --> 2, (38, 27) --> 1, (38, 28) --> 1, (38, 29) --> 1,
                 (38, 30) --> 1, (38, 31) --> 1, (38, 32) --> 1, (38, 33) --> 2, (38, 34) --> 1, (38, 35) --> 1,
                 (38, 36) --> 1, (38, 37) --> 2, (38, 38) --> 2, (39, 1) --> 1, (39, 2) --> 1, (39, 3) --> 1,
                 (39, 4) --> 2, (39, 5) --> 1, (39, 6) --> 2, (39, 7) --> 2, (39, 8) --> 2, (39, 9) --> 2,
                 (39, 10) --> 2, (39, 11) --> 2, (39, 12) --> 1, (39, 13) --> 2, (39, 14) --> 1, (39, 15) --> 1,
                 (39, 16) --> 1, (39, 17) --> 1, (39, 18) --> 1, (39, 19) --> 2, (39, 20) --> 1, (39, 21) --> 2,
                 (39, 22) --> 1, (39, 23) --> 2, (39, 24) --> 1, (39, 25) --> 2, (39, 26) --> 2, (39, 27) --> 2,
                 (39, 28) --> 1, (39, 29) --> 2, (39, 30) --> 2, (39, 31) --> 1, (39, 32) --> 2, (39, 33) --> 1,
                 (39, 34) --> 2, (39, 35) --> 2, (39, 36) --> 1, (39, 37) --> 2, (39, 38) --> 2, (40, 1) --> 1,
                 (40, 2) --> 2, (40, 3) --> 2, (40, 4) --> 1, (40, 5) --> 1, (40, 6) --> 1, (40, 7) --> 2,
                 (40, 8) --> 1, (40, 9) --> 1, (40, 10) --> 1, (40, 11) --> 2, (40, 12) --> 2, (40, 13) --> 2,
                 (40, 14) --> 1, (40, 15) --> 1, (40, 16) --> 2, (40, 17) --> 1, (40, 18) --> 2, (40, 19) --> 1,
                 (40, 20) --> 1, (40, 21) --> 1, (40, 22) --> 1, (40, 23) --> 1, (40, 24) --> 2, (40, 25) --> 1,
                 (40, 26) --> 1, (40, 27) --> 2, (40, 28) --> 2, (40, 29) --> 2, (40, 30) --> 2, (40, 31) --> 2,
                 (40, 32) --> 2, (40, 33) --> 2, (40, 34) --> 2, (40, 35) --> 2, (40, 36) --> 2, (40, 37) --> 1,
                 (40, 38) --> 1)
letting demand be function(1 --> 19, 2 --> 22, 3 --> 18, 4 --> 17, 5 --> 18)
letting maxCost be 24
letting n_customer be 5
letting n_transshipment be 38
letting n_warehouses be 40
letting stock be
        function(1 --> 37, 2 --> 37, 3 --> 37, 4 --> 37, 5 --> 37, 6 --> 37, 7 --> 37, 8 --> 37, 9 --> 37, 10 --> 37,
                 11 --> 37, 12 --> 37, 13 --> 37, 14 --> 37, 15 --> 37, 16 --> 37, 17 --> 37, 18 --> 37, 19 --> 37,
                 20 --> 37, 21 --> 37, 22 --> 37, 23 --> 37, 24 --> 37, 25 --> 37, 26 --> 37, 27 --> 37, 28 --> 37,
                 29 --> 37, 30 --> 37, 31 --> 37, 32 --> 37, 33 --> 37, 34 --> 37, 35 --> 37, 36 --> 37, 37 --> 37,
                 38 --> 37, 39 --> 37, 40 --> 37)
